SAT
-66 33 -76 71 -38 2 -70 -28 35 39 -65 -73 6 98 -95 13 99 24 -68 -23 80 -49 82 -72 -97 -12 84 7 -41 -30 -92 -61 42 -83 -85 87 -22 -5 86 -44 17 -9 -4 -64 96 -74 54 15 -20 -48 59 -18 100 -56 -91 36 11 -63 -45 94 -50 -47 -8 10 -40 -29 32 78 -69 -26 -14 67 -90 -93 21 51 75 -34 -77 -25 -57 79 -1 -81 -19 -16 52 -58 -37 53 -31 -88 -46 89 -55 -43 60 -3 -27 -62 0
